\ENCODING=ISO-8859-1
\Problem name: ilog.cplex

Minimize
 obj1: 98451 x1 + 93407 x2 + 107652 x3 + 104460 x4 + 98035 x5 + 94735 x6
       + 96741 x7 + 95107 x8 + 102599 x9 + 95286 x10 + 107038 x11 + 107154 x12
       + 101396 x13 + 92267 x14 + 104470 x15 + 99066 x16 + 101728 x17
       + 100916 x18 + 96178 x19 + 97388 x20 + 97367 x21 + 108458 x22
       + 94367 x23 + 105224 x24 + 98489 x25 + 97239 x26 + 107317 x27
       + 101947 x28 + 101902 x29 + 97549 x30 + 99505 x31 + 108780 x32
       + 94308 x33 + 102834 x34 + 94502 x35 + 97443 x36 + 95873 x37 + 97853 x38
       + 96691 x39 + 97163 x40 + 106545 x41 + 93765 x42 + 100809 x43
       + 109152 x44 + 93389 x45 + 93241 x46 + 101979 x47 + 107018 x48
       + 93609 x49 + 103377 x50 + 93081 x51 + 106631 x52 + 104981 x53
       + 94544 x54 + 101218 x55 + 109569 x56 + 93116 x57 + 109238 x58
       + 90501 x59 + 100573 x60 + 91321 x61 + 103164 x62 + 105440 x63
       + 98344 x64 + 90339 x65 + 103519 x66 + 91579 x67 + 98224 x68
       + 102042 x69 + 101796 x70 + 103455 x71 + 103206 x72 + 96629 x73
       + 97161 x74 + 104447 x75 + 93918 x76 + 106987 x77 + 104747 x78
       + 109739 x79 + 91077 x80 + 98750 x81 + 100018 x82 + 101028 x83
       + 97123 x84 + 105319 x85 + 106526 x86 + 93318 x87 + 94547 x88
       + 100921 x89 + 103661 x90 + 104612 x91 + 105695 x92 + 101665 x93
       + 94945 x94 + 101520 x95 + 100504 x96 + 97082 x97 + 101957 x98
       + 101652 x99 + 91036 x100 + 102784 x101 + 94139 x102 + 107087 x103
       + 94637 x104 + 108644 x105 + 90571 x106 + 102330 x107 + 101180 x108
       + 96278 x109 + 96182 x110 + 94854 x111 + 104070 x112 + 94657 x113
       + 101961 x114 + 106654 x115 + 109567 x116 + 93307 x117 + 106363 x118
       + 101207 x119 + 104469 x120 + 98306 x121 + 102273 x122 + 92201 x123
       + 104509 x124 + 102933 x125 + 102795 x126 + 90965 x127 + 101505 x128
       + 109781 x129 + 105404 x130 + 91281 x131 + 109721 x132 + 93008 x133
       + 100334 x134 + 95980 x135 + 102870 x136 + 105406 x137 + 95206 x138
       + 97992 x139 + 95395 x140 + 103154 x141 + 91541 x142 + 108313 x143
       + 101852 x144 + 95380 x145 + 92736 x146 + 94234 x147 + 96260 x148
       + 104980 x149 + 101870 x150 + 102278 x151 + 92574 x152 + 108243 x153
       + 94643 x154 + 94182 x155 + 99596 x156 + 92592 x157 + 95216 x158
       + 98824 x159 + 101501 x160 + 94091 x161 + 100930 x162 + 98186 x163
       + 98604 x164 + 109371 x165 + 95584 x166 + 101210 x167 + 92068 x168
       + 100248 x169 + 100401 x170 + 95871 x171 + 90971 x172 + 103507 x173
       + 96796 x174 + 106808 x175 + 100480 x176 + 103251 x177 + 95728 x178
       + 103539 x179 + 95831 x180 + 98396 x181 + 105954 x182 + 95111 x183
       + 105924 x184 + 107339 x185 + 90854 x186 + 101124 x187 + 97025 x188
       + 103178 x189 + 93595 x190 + 102466 x191 + 97401 x192 + 108036 x193
       + 108567 x194 + 104713 x195 + 105498 x196 + 101439 x197 + 107642 x198
       + 103108 x199 + 102715 x200 + 90240 x201 + 96293 x202 + 106942 x203
       + 92617 x204 + 96563 x205 + 101253 x206 + 106877 x207 + 102308 x208
       + 98632 x209 + 108960 x210 + 108924 x211 + 98197 x212 + 95921 x213
       + 105180 x214 + 95655 x215 + 92328 x216 + 92274 x217 + 107893 x218
       + 107763 x219 + 99973 x220 + 98480 x221 + 97939 x222 + 107233 x223
       + 94395 x224 + 109231 x225 + 94868 x226 + 107138 x227 + 90458 x228
       + 108497 x229 + 99076 x230 + 92487 x231 + 95203 x232 + 102022 x233
       + 105547 x234 + 91555 x235 + 90558 x236 + 106025 x237 + 109359 x238
       + 107798 x239 + 101029 x240 + 107503 x241 + 109911 x242 + 106725 x243
       + 109691 x244 + 97244 x245 + 96536 x246 + 102082 x247 + 109270 x248
       + 109695 x249 + 93998 x250 + 91805 x251 + 103627 x252 + 107884 x253
       + 105183 x254 + 102624 x255 + 99062 x256 + 96032 x257 + 102243 x258
       + 101862 x259 + 103911 x260 + 95375 x261 + 91415 x262 + 90076 x263
       + 102189 x264 + 102296 x265 + 93434 x266 + 96965 x267 + 106678 x268
       + 105481 x269 + 94744 x270 + 92606 x271 + 100472 x272 + 92184 x273
       + 91230 x274 + 107224 x275 + 102879 x276 + 107552 x277 + 98461 x278
       + 104384 x279 + 98101 x280 + 105549 x281 + 100212 x282 + 94929 x283
       + 103264 x284 + 105168 x285 + 90527 x286 + 91909 x287 + 106139 x288
       + 101449 x289 + 93657 x290 + 90403 x291 + 92275 x292 + 97223 x293
       + 100904 x294 + 90352 x295 + 106306 x296 + 98557 x297 + 103739 x298
       + 105404 x299 + 81140 x300 + 217586 x301 + 212944 x302 + 205577 x303
       + 192951 x304 + 204911 x305 + 190156 x306 + 213342 x307 + 202787 x308
       + 203995 x309 + 205247 x310 + 181078 x311 + 208306 x312 + 209348 x313
       + 204710 x314 + 215714 x315 + 182753 x316 + 207447 x317 + 199117 x318
       + 209508 x319 + 182533 x320 + 215721 x321 + 196050 x322 + 203929 x323
       + 194182 x324 + 209949 x325 + 210115 x326 + 181901 x327 + 207513 x328
       + 214987 x329 + 183174 x330 + 193816 x331 + 214707 x332 + 198140 x333
       + 217085 x334 + 218988 x335 + 201034 x336 + 202671 x337 + 214034 x338
       + 194275 x339 + 182671 x340 + 190826 x341 + 196186 x342 + 205387 x343
       + 200520 x344 + 211461 x345 + 196721 x346 + 213916 x347 + 216187 x348
       + 206733 x349 + 198405 x350 + 204440 x351 + 197229 x352 + 185493 x353
       + 183736 x354 + 201080 x355 + 203531 x356 + 217952 x357 + 192265 x358
       + 181662 x359 + 91318 x360
Subject To
 c1:   - x3 + x6 + x10 - x38 - x52  = 0
 c2:   - x63 + x66 + x70 - x98 - x112  = 0
 c3:   - x123 + x126 + x130 - x158 - x172  = 0
 c4:   - x183 + x186 + x190 - x218 - x232  = 0
 c5:   - x243 + x246 + x250 - x278 - x292  = 0
 c6:   - x1 + x2 - x4 - x10 - x15 - x32 - x36 + x43 + x45 + x50  = 0
 c7:   - x61 + x62 - x64 - x70 - x75 - x92 - x96 + x103 + x105 + x110  = 0
 c8:   - x121 + x122 - x124 - x130 - x135 - x152 - x156 + x163 + x165 + x170
        = -1
 c9:   - x181 + x182 - x184 - x190 - x195 - x212 - x216 + x223 + x225 + x230
        = 0
 c10:  - x241 + x242 - x244 - x250 - x255 - x272 - x276 + x283 + x285 + x290
        = 0
 c11:  x1 + x5 - x19 + x21 + x26 + x29 + x30 - x34 - x47 - x48 + x56 - x57
       + x60  = 0
 c12:  x61 + x65 - x79 + x81 + x86 + x89 + x90 - x94 - x107 - x108 + x116
       - x117 + x120  = 0
 c13:  x121 + x125 - x139 + x141 + x146 + x149 + x150 - x154 - x167 - x168
       + x176 - x177 + x180  = 0
 c14:  x181 + x185 - x199 + x201 + x206 + x209 + x210 - x214 - x227 - x228
       + x236 - x237 + x240  = 0
 c15:  x241 + x245 - x259 + x261 + x266 + x269 + x270 - x274 - x287 - x288
       + x296 - x297 + x300  = 0
 c16:  x16 - x21 + x24 + x36 - x37 + x42 - x51 - x54 + x55  = 0
 c17:  x76 - x81 + x84 + x96 - x97 + x102 - x111 - x114 + x115  = 0
 c18:  x136 - x141 + x144 + x156 - x157 + x162 - x171 - x174 + x175  = 0
 c19:  x196 - x201 + x204 + x216 - x217 + x222 - x231 - x234 + x235  = 0
 c20:  x256 - x261 + x264 + x276 - x277 + x282 - x291 - x294 + x295  = 0
 c21:  x4 - x5 + x7 + x23 + x27 + x53  = 0
 c22:  x64 - x65 + x67 + x83 + x87 + x113  = 1
 c23:  x124 - x125 + x127 + x143 + x147 + x173  = 0
 c24:  x184 - x185 + x187 + x203 + x207 + x233  = 0
 c25:  x244 - x245 + x247 + x263 + x267 + x293  = 0
 c26:  x11 + x14 - x31 + x38 - x40 + x46  = 1
 c27:  x71 + x74 - x91 + x98 - x100 + x106  = 0
 c28:  x131 + x134 - x151 + x158 - x160 + x166  = 0
 c29:  x191 + x194 - x211 + x218 - x220 + x226  = 0
 c30:  x251 + x254 - x271 + x278 - x280 + x286  = 0
 c31:  x3 + x8 + x18 + x25 - x28 + x32 - x35 + x41 - x46 + x51 - x56 - x58  = 0
 c32:  x63 + x68 + x78 + x85 - x88 + x92 - x95 + x101 - x106 + x111 - x116
       - x118  = 0
 c33:  x123 + x128 + x138 + x145 - x148 + x152 - x155 + x161 - x166 + x171
       - x176 - x178  = 0
 c34:  x183 + x188 + x198 + x205 - x208 + x212 - x215 + x221 - x226 + x231
       - x236 - x238  = 0
 c35:  x243 + x248 + x258 + x265 - x268 + x272 - x275 + x281 - x286 + x291
       - x296 - x298  = 0
 c36:  - x8 - x13 - x14 + x17 + x19 - x23 - x24 - x29 - x33 - x45  = -1
 c37:  - x68 - x73 - x74 + x77 + x79 - x83 - x84 - x89 - x93 - x105  = 0
 c38:  - x128 - x133 - x134 + x137 + x139 - x143 - x144 - x149 - x153 - x165
        = 0
 c39:  - x188 - x193 - x194 + x197 + x199 - x203 - x204 - x209 - x213 - x225
        = 0
 c40:  - x248 - x253 - x254 + x257 + x259 - x263 - x264 - x269 - x273 - x285
        = 0
 c41:  - x11 + x12 + x15 - x16 + x34 - x43 + x52 - x53 + x54 + x58  = 0
 c42:  - x71 + x72 + x75 - x76 + x94 - x103 + x112 - x113 + x114 + x118  = 0
 c43:  - x131 + x132 + x135 - x136 + x154 - x163 + x172 - x173 + x174 + x178
        = 0
 c44:  - x191 + x192 + x195 - x196 + x214 - x223 + x232 - x233 + x234 + x238
        = 0
 c45:  - x251 + x252 + x255 - x256 + x274 - x283 + x292 - x293 + x294 + x298
        = 0
 c46:  - x9 - x26 + x39 + x40 - x44 + x48  = 0
 c47:  - x69 - x86 + x99 + x100 - x104 + x108  = 0
 c48:  - x129 - x146 + x159 + x160 - x164 + x168  = 0
 c49:  - x189 - x206 + x219 + x220 - x224 + x228  = -1
 c50:  - x249 - x266 + x279 + x280 - x284 + x288  = 0
 c51:  - x7 + x9 + x31 - x39 - x49 - x60  = 0
 c52:  - x67 + x69 + x91 - x99 - x109 - x120  = -1
 c53:  - x127 + x129 + x151 - x159 - x169 - x180  = 1
 c54:  - x187 + x189 + x211 - x219 - x229 - x240  = 1
 c55:  - x247 + x249 + x271 - x279 - x289 - x300  = 0
 c56:  - x12 - x17 + x20 + x22 + x28 + x33 - x41 - x42 + x44 + x47  = 0
 c57:  - x72 - x77 + x80 + x82 + x88 + x93 - x101 - x102 + x104 + x107  = 0
 c58:  - x132 - x137 + x140 + x142 + x148 + x153 - x161 - x162 + x164 + x167
        = 0
 c59:  - x192 - x197 + x200 + x202 + x208 + x213 - x221 - x222 + x224 + x227
        = 0
 c60:  - x252 - x257 + x260 + x262 + x268 + x273 - x281 - x282 + x284 + x287
        = 0
 c61:  x35 + x37 + x49 - x50 + x59  = 0
 c62:  x95 + x97 + x109 - x110 + x119  = 0
 c63:  x155 + x157 + x169 - x170 + x179  = 0
 c64:  x215 + x217 + x229 - x230 + x239  = 0
 c65:  x275 + x277 + x289 - x290 + x299  = 0
 c66:  - x2 + x13 - x20 - x25 - x30 - x55  = 0
 c67:  - x62 + x73 - x80 - x85 - x90 - x115  = 0
 c68:  - x122 + x133 - x140 - x145 - x150 - x175  = 0
 c69:  - x182 + x193 - x200 - x205 - x210 - x235  = 0
 c70:  - x242 + x253 - x260 - x265 - x270 - x295  = 1
 c71:  - x6 - x18 - x22 - x27 + x57 - x59  = 0
 c72:  - x66 - x78 - x82 - x87 + x117 - x119  = 0
 c73:  - x126 - x138 - x142 - x147 + x177 - x179  = 0
 c74:  - x186 - x198 - x202 - x207 + x237 - x239  = 0
 c75:  - x246 - x258 - x262 - x267 + x297 - x299  = -1
 c76:  4 x1 + 4 x61 + 4 x121 + 4 x181 + 4 x241 - 10 x301 <= 0
 c77:  4 x2 + 4 x62 + 4 x122 + 4 x182 + 4 x242 - 10 x302 <= 0
 c78:  4 x3 + 4 x63 + 4 x123 + 4 x183 + 4 x243 - 10 x303 <= 0
 c79:  4 x4 + 4 x64 + 4 x124 + 4 x184 + 4 x244 - 11 x304 <= 0
 c80:  4 x5 + 4 x65 + 4 x125 + 4 x185 + 4 x245 - 10 x305 <= 0
 c81:  4 x6 + 4 x66 + 4 x126 + 4 x186 + 4 x246 - 10 x306 <= 0
 c82:  4 x7 + 4 x67 + 4 x127 + 4 x187 + 4 x247 - 11 x307 <= 0
 c83:  4 x8 + 4 x68 + 4 x128 + 4 x188 + 4 x248 - 10 x308 <= 0
 c84:  4 x9 + 4 x69 + 4 x129 + 4 x189 + 4 x249 - 10 x309 <= 0
 c85:  4 x10 + 4 x70 + 4 x130 + 4 x190 + 4 x250 - 11 x310 <= 0
 c86:  4 x11 + 4 x71 + 4 x131 + 4 x191 + 4 x251 - 10 x311 <= 0
 c87:  4 x12 + 4 x72 + 4 x132 + 4 x192 + 4 x252 - 10 x312 <= 0
 c88:  4 x13 + 4 x73 + 4 x133 + 4 x193 + 4 x253 - 11 x313 <= 0
 c89:  4 x14 + 4 x74 + 4 x134 + 4 x194 + 4 x254 - 10 x314 <= 0
 c90:  4 x15 + 4 x75 + 4 x135 + 4 x195 + 4 x255 - 10 x315 <= 0
 c91:  4 x16 + 4 x76 + 4 x136 + 4 x196 + 4 x256 - 10 x316 <= 0
 c92:  4 x17 + 4 x77 + 4 x137 + 4 x197 + 4 x257 - 9 x317 <= 0
 c93:  4 x18 + 4 x78 + 4 x138 + 4 x198 + 4 x258 - 10 x318 <= 0
 c94:  4 x19 + 4 x79 + 4 x139 + 4 x199 + 4 x259 - 10 x319 <= 0
 c95:  4 x20 + 4 x80 + 4 x140 + 4 x200 + 4 x260 - 9 x320 <= 0
 c96:  4 x21 + 4 x81 + 4 x141 + 4 x201 + 4 x261 - 11 x321 <= 0
 c97:  4 x22 + 4 x82 + 4 x142 + 4 x202 + 4 x262 - 10 x322 <= 0
 c98:  4 x23 + 4 x83 + 4 x143 + 4 x203 + 4 x263 - 9 x323 <= 0
 c99:  4 x24 + 4 x84 + 4 x144 + 4 x204 + 4 x264 - 10 x324 <= 0
 c100: 4 x25 + 4 x85 + 4 x145 + 4 x205 + 4 x265 - 9 x325 <= 0
 c101: 4 x26 + 4 x86 + 4 x146 + 4 x206 + 4 x266 - 9 x326 <= 0
 c102: 4 x27 + 4 x87 + 4 x147 + 4 x207 + 4 x267 - 11 x327 <= 0
 c103: 4 x28 + 4 x88 + 4 x148 + 4 x208 + 4 x268 - 11 x328 <= 0
 c104: 4 x29 + 4 x89 + 4 x149 + 4 x209 + 4 x269 - 9 x329 <= 0
 c105: 4 x30 + 4 x90 + 4 x150 + 4 x210 + 4 x270 - 9 x330 <= 0
 c106: 4 x31 + 4 x91 + 4 x151 + 4 x211 + 4 x271 - 11 x331 <= 0
 c107: 4 x32 + 4 x92 + 4 x152 + 4 x212 + 4 x272 - 10 x332 <= 0
 c108: 4 x33 + 4 x93 + 4 x153 + 4 x213 + 4 x273 - 10 x333 <= 0
 c109: 4 x34 + 4 x94 + 4 x154 + 4 x214 + 4 x274 - 9 x334 <= 0
 c110: 4 x35 + 4 x95 + 4 x155 + 4 x215 + 4 x275 - 10 x335 <= 0
 c111: 4 x36 + 4 x96 + 4 x156 + 4 x216 + 4 x276 - 10 x336 <= 0
 c112: 4 x37 + 4 x97 + 4 x157 + 4 x217 + 4 x277 - 11 x337 <= 0
 c113: 4 x38 + 4 x98 + 4 x158 + 4 x218 + 4 x278 - 10 x338 <= 0
 c114: 4 x39 + 4 x99 + 4 x159 + 4 x219 + 4 x279 - 10 x339 <= 0
 c115: 4 x40 + 4 x100 + 4 x160 + 4 x220 + 4 x280 - 10 x340 <= 0
 c116: 4 x41 + 4 x101 + 4 x161 + 4 x221 + 4 x281 - 10 x341 <= 0
 c117: 4 x42 + 4 x102 + 4 x162 + 4 x222 + 4 x282 - 11 x342 <= 0
 c118: 4 x43 + 4 x103 + 4 x163 + 4 x223 + 4 x283 - 9 x343 <= 0
 c119: 4 x44 + 4 x104 + 4 x164 + 4 x224 + 4 x284 - 10 x344 <= 0
 c120: 4 x45 + 4 x105 + 4 x165 + 4 x225 + 4 x285 - 11 x345 <= 0
 c121: 4 x46 + 4 x106 + 4 x166 + 4 x226 + 4 x286 - 11 x346 <= 0
 c122: 4 x47 + 4 x107 + 4 x167 + 4 x227 + 4 x287 - 9 x347 <= 0
 c123: 4 x48 + 4 x108 + 4 x168 + 4 x228 + 4 x288 - 11 x348 <= 0
 c124: 4 x49 + 4 x109 + 4 x169 + 4 x229 + 4 x289 - 10 x349 <= 0
 c125: 4 x50 + 4 x110 + 4 x170 + 4 x230 + 4 x290 - 10 x350 <= 0
 c126: 4 x51 + 4 x111 + 4 x171 + 4 x231 + 4 x291 - 10 x351 <= 0
 c127: 4 x52 + 4 x112 + 4 x172 + 4 x232 + 4 x292 - 11 x352 <= 0
 c128: 4 x53 + 4 x113 + 4 x173 + 4 x233 + 4 x293 - 11 x353 <= 0
 c129: 4 x54 + 4 x114 + 4 x174 + 4 x234 + 4 x294 - 10 x354 <= 0
 c130: 4 x55 + 4 x115 + 4 x175 + 4 x235 + 4 x295 - 10 x355 <= 0
 c131: 4 x56 + 4 x116 + 4 x176 + 4 x236 + 4 x296 - 10 x356 <= 0
 c132: 4 x57 + 4 x117 + 4 x177 + 4 x237 + 4 x297 - 10 x357 <= 0
 c133: 4 x58 + 4 x118 + 4 x178 + 4 x238 + 4 x298 - 10 x358 <= 0
 c134: 4 x59 + 4 x119 + 4 x179 + 4 x239 + 4 x299 - 10 x359 <= 0
 c135: 4 x60 + 4 x120 + 4 x180 + 4 x240 + 4 x300 - 5 x360 <= 0
Bounds
 0 <= x1 <= 1
 0 <= x2 <= 1
 0 <= x3 <= 1
 0 <= x4 <= 1
 0 <= x5 <= 1
 0 <= x6 <= 1
 0 <= x7 <= 1
 0 <= x8 <= 1
 0 <= x9 <= 1
 0 <= x10 <= 1
 0 <= x11 <= 1
 0 <= x12 <= 1
 0 <= x13 <= 1
 0 <= x14 <= 1
 0 <= x15 <= 1
 0 <= x16 <= 1
 0 <= x17 <= 1
 0 <= x18 <= 1
 0 <= x19 <= 1
 0 <= x20 <= 1
 0 <= x21 <= 1
 0 <= x22 <= 1
 0 <= x23 <= 1
 0 <= x24 <= 1
 0 <= x25 <= 1
 0 <= x26 <= 1
 0 <= x27 <= 1
 0 <= x28 <= 1
 0 <= x29 <= 1
 0 <= x30 <= 1
 0 <= x31 <= 1
 0 <= x32 <= 1
 0 <= x33 <= 1
 0 <= x34 <= 1
 0 <= x35 <= 1
 0 <= x36 <= 1
 0 <= x37 <= 1
 0 <= x38 <= 1
 0 <= x39 <= 1
 0 <= x40 <= 1
 0 <= x41 <= 1
 0 <= x42 <= 1
 0 <= x43 <= 1
 0 <= x44 <= 1
 0 <= x45 <= 1
 0 <= x46 <= 1
 0 <= x47 <= 1
 0 <= x48 <= 1
 0 <= x49 <= 1
 0 <= x50 <= 1
 0 <= x51 <= 1
 0 <= x52 <= 1
 0 <= x53 <= 1
 0 <= x54 <= 1
 0 <= x55 <= 1
 0 <= x56 <= 1
 0 <= x57 <= 1
 0 <= x58 <= 1
 0 <= x59 <= 1
 0 <= x60 <= 1
 0 <= x61 <= 1
 0 <= x62 <= 1
 0 <= x63 <= 1
 0 <= x64 <= 1
 0 <= x65 <= 1
 0 <= x66 <= 1
 0 <= x67 <= 1
 0 <= x68 <= 1
 0 <= x69 <= 1
 0 <= x70 <= 1
 0 <= x71 <= 1
 0 <= x72 <= 1
 0 <= x73 <= 1
 0 <= x74 <= 1
 0 <= x75 <= 1
 0 <= x76 <= 1
 0 <= x77 <= 1
 0 <= x78 <= 1
 0 <= x79 <= 1
 0 <= x80 <= 1
 0 <= x81 <= 1
 0 <= x82 <= 1
 0 <= x83 <= 1
 0 <= x84 <= 1
 0 <= x85 <= 1
 0 <= x86 <= 1
 0 <= x87 <= 1
 0 <= x88 <= 1
 0 <= x89 <= 1
 0 <= x90 <= 1
 0 <= x91 <= 1
 0 <= x92 <= 1
 0 <= x93 <= 1
 0 <= x94 <= 1
 0 <= x95 <= 1
 0 <= x96 <= 1
 0 <= x97 <= 1
 0 <= x98 <= 1
 0 <= x99 <= 1
 0 <= x100 <= 1
 0 <= x101 <= 1
 0 <= x102 <= 1
 0 <= x103 <= 1
 0 <= x104 <= 1
 0 <= x105 <= 1
 0 <= x106 <= 1
 0 <= x107 <= 1
 0 <= x108 <= 1
 0 <= x109 <= 1
 0 <= x110 <= 1
 0 <= x111 <= 1
 0 <= x112 <= 1
 0 <= x113 <= 1
 0 <= x114 <= 1
 0 <= x115 <= 1
 0 <= x116 <= 1
 0 <= x117 <= 1
 0 <= x118 <= 1
 0 <= x119 <= 1
 0 <= x120 <= 1
 0 <= x121 <= 1
 0 <= x122 <= 1
 0 <= x123 <= 1
 0 <= x124 <= 1
 0 <= x125 <= 1
 0 <= x126 <= 1
 0 <= x127 <= 1
 0 <= x128 <= 1
 0 <= x129 <= 1
 0 <= x130 <= 1
 0 <= x131 <= 1
 0 <= x132 <= 1
 0 <= x133 <= 1
 0 <= x134 <= 1
 0 <= x135 <= 1
 0 <= x136 <= 1
 0 <= x137 <= 1
 0 <= x138 <= 1
 0 <= x139 <= 1
 0 <= x140 <= 1
 0 <= x141 <= 1
 0 <= x142 <= 1
 0 <= x143 <= 1
 0 <= x144 <= 1
 0 <= x145 <= 1
 0 <= x146 <= 1
 0 <= x147 <= 1
 0 <= x148 <= 1
 0 <= x149 <= 1
 0 <= x150 <= 1
 0 <= x151 <= 1
 0 <= x152 <= 1
 0 <= x153 <= 1
 0 <= x154 <= 1
 0 <= x155 <= 1
 0 <= x156 <= 1
 0 <= x157 <= 1
 0 <= x158 <= 1
 0 <= x159 <= 1
 0 <= x160 <= 1
 0 <= x161 <= 1
 0 <= x162 <= 1
 0 <= x163 <= 1
 0 <= x164 <= 1
 0 <= x165 <= 1
 0 <= x166 <= 1
 0 <= x167 <= 1
 0 <= x168 <= 1
 0 <= x169 <= 1
 0 <= x170 <= 1
 0 <= x171 <= 1
 0 <= x172 <= 1
 0 <= x173 <= 1
 0 <= x174 <= 1
 0 <= x175 <= 1
 0 <= x176 <= 1
 0 <= x177 <= 1
 0 <= x178 <= 1
 0 <= x179 <= 1
 0 <= x180 <= 1
 0 <= x181 <= 1
 0 <= x182 <= 1
 0 <= x183 <= 1
 0 <= x184 <= 1
 0 <= x185 <= 1
 0 <= x186 <= 1
 0 <= x187 <= 1
 0 <= x188 <= 1
 0 <= x189 <= 1
 0 <= x190 <= 1
 0 <= x191 <= 1
 0 <= x192 <= 1
 0 <= x193 <= 1
 0 <= x194 <= 1
 0 <= x195 <= 1
 0 <= x196 <= 1
 0 <= x197 <= 1
 0 <= x198 <= 1
 0 <= x199 <= 1
 0 <= x200 <= 1
 0 <= x201 <= 1
 0 <= x202 <= 1
 0 <= x203 <= 1
 0 <= x204 <= 1
 0 <= x205 <= 1
 0 <= x206 <= 1
 0 <= x207 <= 1
 0 <= x208 <= 1
 0 <= x209 <= 1
 0 <= x210 <= 1
 0 <= x211 <= 1
 0 <= x212 <= 1
 0 <= x213 <= 1
 0 <= x214 <= 1
 0 <= x215 <= 1
 0 <= x216 <= 1
 0 <= x217 <= 1
 0 <= x218 <= 1
 0 <= x219 <= 1
 0 <= x220 <= 1
 0 <= x221 <= 1
 0 <= x222 <= 1
 0 <= x223 <= 1
 0 <= x224 <= 1
 0 <= x225 <= 1
 0 <= x226 <= 1
 0 <= x227 <= 1
 0 <= x228 <= 1
 0 <= x229 <= 1
 0 <= x230 <= 1
 0 <= x231 <= 1
 0 <= x232 <= 1
 0 <= x233 <= 1
 0 <= x234 <= 1
 0 <= x235 <= 1
 0 <= x236 <= 1
 0 <= x237 <= 1
 0 <= x238 <= 1
 0 <= x239 <= 1
 0 <= x240 <= 1
 0 <= x241 <= 1
 0 <= x242 <= 1
 0 <= x243 <= 1
 0 <= x244 <= 1
 0 <= x245 <= 1
 0 <= x246 <= 1
 0 <= x247 <= 1
 0 <= x248 <= 1
 0 <= x249 <= 1
 0 <= x250 <= 1
 0 <= x251 <= 1
 0 <= x252 <= 1
 0 <= x253 <= 1
 0 <= x254 <= 1
 0 <= x255 <= 1
 0 <= x256 <= 1
 0 <= x257 <= 1
 0 <= x258 <= 1
 0 <= x259 <= 1
 0 <= x260 <= 1
 0 <= x261 <= 1
 0 <= x262 <= 1
 0 <= x263 <= 1
 0 <= x264 <= 1
 0 <= x265 <= 1
 0 <= x266 <= 1
 0 <= x267 <= 1
 0 <= x268 <= 1
 0 <= x269 <= 1
 0 <= x270 <= 1
 0 <= x271 <= 1
 0 <= x272 <= 1
 0 <= x273 <= 1
 0 <= x274 <= 1
 0 <= x275 <= 1
 0 <= x276 <= 1
 0 <= x277 <= 1
 0 <= x278 <= 1
 0 <= x279 <= 1
 0 <= x280 <= 1
 0 <= x281 <= 1
 0 <= x282 <= 1
 0 <= x283 <= 1
 0 <= x284 <= 1
 0 <= x285 <= 1
 0 <= x286 <= 1
 0 <= x287 <= 1
 0 <= x288 <= 1
 0 <= x289 <= 1
 0 <= x290 <= 1
 0 <= x291 <= 1
 0 <= x292 <= 1
 0 <= x293 <= 1
 0 <= x294 <= 1
 0 <= x295 <= 1
 0 <= x296 <= 1
 0 <= x297 <= 1
 0 <= x298 <= 1
 0 <= x299 <= 1
 0 <= x300 <= 1
 0 <= x301 <= 1
 0 <= x302 <= 1
 0 <= x303 <= 1
 0 <= x304 <= 1
 0 <= x305 <= 1
 0 <= x306 <= 1
 0 <= x307 <= 1
 0 <= x308 <= 1
 0 <= x309 <= 1
 0 <= x310 <= 1
 0 <= x311 <= 1
 0 <= x312 <= 1
 0 <= x313 <= 1
 0 <= x314 <= 1
 0 <= x315 <= 1
 0 <= x316 <= 1
 0 <= x317 <= 1
 0 <= x318 <= 1
 0 <= x319 <= 1
 0 <= x320 <= 1
 0 <= x321 <= 1
 0 <= x322 <= 1
 0 <= x323 <= 1
 0 <= x324 <= 1
 0 <= x325 <= 1
 0 <= x326 <= 1
 0 <= x327 <= 1
 0 <= x328 <= 1
 0 <= x329 <= 1
 0 <= x330 <= 1
 0 <= x331 <= 1
 0 <= x332 <= 1
 0 <= x333 <= 1
 0 <= x334 <= 1
 0 <= x335 <= 1
 0 <= x336 <= 1
 0 <= x337 <= 1
 0 <= x338 <= 1
 0 <= x339 <= 1
 0 <= x340 <= 1
 0 <= x341 <= 1
 0 <= x342 <= 1
 0 <= x343 <= 1
 0 <= x344 <= 1
 0 <= x345 <= 1
 0 <= x346 <= 1
 0 <= x347 <= 1
 0 <= x348 <= 1
 0 <= x349 <= 1
 0 <= x350 <= 1
 0 <= x351 <= 1
 0 <= x352 <= 1
 0 <= x353 <= 1
 0 <= x354 <= 1
 0 <= x355 <= 1
 0 <= x356 <= 1
 0 <= x357 <= 1
 0 <= x358 <= 1
 0 <= x359 <= 1
 0 <= x360 <= 1
Binaries
 x301  x302  x303  x304  x305  x306  x307  x308  x309  x310  x311  x312  x313 
 x314  x315  x316  x317  x318  x319  x320  x321  x322  x323  x324  x325  x326 
 x327  x328  x329  x330  x331  x332  x333  x334  x335  x336  x337  x338  x339 
 x340  x341  x342  x343  x344  x345  x346  x347  x348  x349  x350  x351  x352 
 x353  x354  x355  x356  x357  x358  x359  x360 
End
